(set-logic QF_LRA)
(declare-fun X0 () Real )
(declare-fun Y0 () Real )
(declare-fun X1 () Real )
(declare-fun Y1 () Real )
(declare-fun X2 () Real )
(declare-fun Y2 () Real )
(declare-fun X3 () Real )
(declare-fun Y3 () Real )
(declare-fun X4 () Real )
(declare-fun Y4 () Real )
(declare-fun X5 () Real )
(declare-fun Y5 () Real )
(declare-fun X6 () Real )
(declare-fun Y6 () Real )
(declare-fun X7 () Real )
(declare-fun Y7 () Real )
(declare-fun X8 () Real )
(declare-fun Y8 () Real )
(declare-fun Z () Real )
(declare-fun k () Real )
(assert (let
(( $goal (>= Z k) ))
(let
((
$phi ( and 
( or ( <= ( + X0 13 ) X1 )  ( <= ( + X1 97 ) X0 )  ( <= ( + Y0 25 ) Y1 )  ( <= ( + Y1 46 ) Y0 )  )
( or ( <= ( + X0 13 ) X2 )  ( <= ( + X2 85 ) X0 )  ( <= ( + Y0 25 ) Y2 )  ( <= ( + Y2 47 ) Y0 )  )
( or ( <= ( + X0 13 ) X3 )  ( <= ( + X3 24 ) X0 )  ( <= ( + Y0 25 ) Y3 )  ( <= ( + Y3 85 ) Y0 )  )
( or ( <= ( + X0 13 ) X4 )  ( <= ( + X4 62 ) X0 )  ( <= ( + Y0 25 ) Y4 )  ( <= ( + Y4 45 ) Y0 )  )
( or ( <= ( + X0 13 ) X5 )  ( <= ( + X5 49 ) X0 )  ( <= ( + Y0 25 ) Y5 )  ( <= ( + Y5 15 ) Y0 )  )
( or ( <= ( + X0 13 ) X6 )  ( <= ( + X6 93 ) X0 )  ( <= ( + Y0 25 ) Y6 )  ( <= ( + Y6 66 ) Y0 )  )
( or ( <= ( + X0 13 ) X7 )  ( <= ( + X7 34 ) X0 )  ( <= ( + Y0 25 ) Y7 )  ( <= ( + Y7 21 ) Y0 )  )
( or ( <= ( + X0 13 ) X8 )  ( <= ( + X8 83 ) X0 )  ( <= ( + Y0 25 ) Y8 )  ( <= ( + Y8 59 ) Y0 )  )
( or ( <= ( + X1 97 ) X2 )  ( <= ( + X2 85 ) X1 )  ( <= ( + Y1 46 ) Y2 )  ( <= ( + Y2 47 ) Y1 )  )
( or ( <= ( + X1 97 ) X3 )  ( <= ( + X3 24 ) X1 )  ( <= ( + Y1 46 ) Y3 )  ( <= ( + Y3 85 ) Y1 )  )
( or ( <= ( + X1 97 ) X4 )  ( <= ( + X4 62 ) X1 )  ( <= ( + Y1 46 ) Y4 )  ( <= ( + Y4 45 ) Y1 )  )
( or ( <= ( + X1 97 ) X5 )  ( <= ( + X5 49 ) X1 )  ( <= ( + Y1 46 ) Y5 )  ( <= ( + Y5 15 ) Y1 )  )
( or ( <= ( + X1 97 ) X6 )  ( <= ( + X6 93 ) X1 )  ( <= ( + Y1 46 ) Y6 )  ( <= ( + Y6 66 ) Y1 )  )
( or ( <= ( + X1 97 ) X7 )  ( <= ( + X7 34 ) X1 )  ( <= ( + Y1 46 ) Y7 )  ( <= ( + Y7 21 ) Y1 )  )
( or ( <= ( + X1 97 ) X8 )  ( <= ( + X8 83 ) X1 )  ( <= ( + Y1 46 ) Y8 )  ( <= ( + Y8 59 ) Y1 )  )
( or ( <= ( + X2 85 ) X3 )  ( <= ( + X3 24 ) X2 )  ( <= ( + Y2 47 ) Y3 )  ( <= ( + Y3 85 ) Y2 )  )
( or ( <= ( + X2 85 ) X4 )  ( <= ( + X4 62 ) X2 )  ( <= ( + Y2 47 ) Y4 )  ( <= ( + Y4 45 ) Y2 )  )
( or ( <= ( + X2 85 ) X5 )  ( <= ( + X5 49 ) X2 )  ( <= ( + Y2 47 ) Y5 )  ( <= ( + Y5 15 ) Y2 )  )
( or ( <= ( + X2 85 ) X6 )  ( <= ( + X6 93 ) X2 )  ( <= ( + Y2 47 ) Y6 )  ( <= ( + Y6 66 ) Y2 )  )
( or ( <= ( + X2 85 ) X7 )  ( <= ( + X7 34 ) X2 )  ( <= ( + Y2 47 ) Y7 )  ( <= ( + Y7 21 ) Y2 )  )
( or ( <= ( + X2 85 ) X8 )  ( <= ( + X8 83 ) X2 )  ( <= ( + Y2 47 ) Y8 )  ( <= ( + Y8 59 ) Y2 )  )
( or ( <= ( + X3 24 ) X4 )  ( <= ( + X4 62 ) X3 )  ( <= ( + Y3 85 ) Y4 )  ( <= ( + Y4 45 ) Y3 )  )
( or ( <= ( + X3 24 ) X5 )  ( <= ( + X5 49 ) X3 )  ( <= ( + Y3 85 ) Y5 )  ( <= ( + Y5 15 ) Y3 )  )
( or ( <= ( + X3 24 ) X6 )  ( <= ( + X6 93 ) X3 )  ( <= ( + Y3 85 ) Y6 )  ( <= ( + Y6 66 ) Y3 )  )
( or ( <= ( + X3 24 ) X7 )  ( <= ( + X7 34 ) X3 )  ( <= ( + Y3 85 ) Y7 )  ( <= ( + Y7 21 ) Y3 )  )
( or ( <= ( + X3 24 ) X8 )  ( <= ( + X8 83 ) X3 )  ( <= ( + Y3 85 ) Y8 )  ( <= ( + Y8 59 ) Y3 )  )
( or ( <= ( + X4 62 ) X5 )  ( <= ( + X5 49 ) X4 )  ( <= ( + Y4 45 ) Y5 )  ( <= ( + Y5 15 ) Y4 )  )
( or ( <= ( + X4 62 ) X6 )  ( <= ( + X6 93 ) X4 )  ( <= ( + Y4 45 ) Y6 )  ( <= ( + Y6 66 ) Y4 )  )
( or ( <= ( + X4 62 ) X7 )  ( <= ( + X7 34 ) X4 )  ( <= ( + Y4 45 ) Y7 )  ( <= ( + Y7 21 ) Y4 )  )
( or ( <= ( + X4 62 ) X8 )  ( <= ( + X8 83 ) X4 )  ( <= ( + Y4 45 ) Y8 )  ( <= ( + Y8 59 ) Y4 )  )
( or ( <= ( + X5 49 ) X6 )  ( <= ( + X6 93 ) X5 )  ( <= ( + Y5 15 ) Y6 )  ( <= ( + Y6 66 ) Y5 )  )
( or ( <= ( + X5 49 ) X7 )  ( <= ( + X7 34 ) X5 )  ( <= ( + Y5 15 ) Y7 )  ( <= ( + Y7 21 ) Y5 )  )
( or ( <= ( + X5 49 ) X8 )  ( <= ( + X8 83 ) X5 )  ( <= ( + Y5 15 ) Y8 )  ( <= ( + Y8 59 ) Y5 )  )
( or ( <= ( + X6 93 ) X7 )  ( <= ( + X7 34 ) X6 )  ( <= ( + Y6 66 ) Y7 )  ( <= ( + Y7 21 ) Y6 )  )
( or ( <= ( + X6 93 ) X8 )  ( <= ( + X8 83 ) X6 )  ( <= ( + Y6 66 ) Y8 )  ( <= ( + Y8 59 ) Y6 )  )
( or ( <= ( + X7 34 ) X8 )  ( <= ( + X8 83 ) X7 )  ( <= ( + Y7 21 ) Y8 )  ( <= ( + Y8 59 ) Y7 )  )
( >= X0 0)
( <= ( + X0 13) Z)
( >= Y0 0)
( <= ( + Y0 25 ) 100)
( >= X1 0)
( <= ( + X1 97) Z)
( >= Y1 0)
( <= ( + Y1 46 ) 100)
( >= X2 0)
( <= ( + X2 85) Z)
( >= Y2 0)
( <= ( + Y2 47 ) 100)
( >= X3 0)
( <= ( + X3 24) Z)
( >= Y3 0)
( <= ( + Y3 85 ) 100)
( >= X4 0)
( <= ( + X4 62) Z)
( >= Y4 0)
( <= ( + Y4 45 ) 100)
( >= X5 0)
( <= ( + X5 49) Z)
( >= Y5 0)
( <= ( + Y5 15 ) 100)
( >= X6 0)
( <= ( + X6 93) Z)
( >= Y6 0)
( <= ( + Y6 66 ) 100)
( >= X7 0)
( <= ( + X7 34) Z)
( >= Y7 0)
( <= ( + Y7 21 ) 100)
( >= X8 0)
( <= ( + X8 83) Z)
( >= Y8 0)
( <= ( + Y8 59 ) 100)
) )
)(=> $phi $goal))))